
Gurobi 10.0.1 (linux64) logging started Sun Nov 26 15:44:54 2023

Set parameter LogFile to value "ArtificialInstance/ExperimentV2/S3T4K1/AdSp/gurobiDoSp89.txt"
Gurobi Optimizer version 10.0.1 build v10.0.1rc0 (linux64)

CPU model: AMD EPYC 7H12 64-Core Processor, instruction set [SSE2|AVX|AVX2]
Thread count: 128 physical cores, 128 logical processors, using up to 32 threads

Academic license 656792 - for non-commercial use only - registered to b.___@student.vu.nl
Optimize a model with 3788 rows, 3524 columns and 13428 nonzeros
Model fingerprint: 0x1752ad64
Variable types: 0 continuous, 3524 integer (3524 binary)
Coefficient statistics:
  Matrix range     [1e+00, 1e+00]
  Objective range  [1e+00, 2e+01]
  Bounds range     [1e+00, 1e+00]
  RHS range        [1e+00, 1e+00]
Presolve removed 3002 rows and 2789 columns
Presolve time: 0.05s
Presolved: 786 rows, 735 columns, 2952 nonzeros
Variable types: 0 continuous, 735 integer (735 binary)
Found heuristic solution: objective 94.4515942

Root relaxation: objective 5.855889e+01, 156 iterations, 0.00 seconds (0.00 work units)

    Nodes    |    Current Node    |     Objective Bounds      |     Work
 Expl Unexpl |  Obj  Depth IntInf | Incumbent    BestBd   Gap | It/Node Time

*    0     0               0      58.5588891   58.55889  0.00%     -    0s

Explored 1 nodes (156 simplex iterations) in 0.08 seconds (0.04 work units)
Thread count was 32 (of 128 available processors)

Solution count 2: 58.5589 94.4516 

Optimal solution found (tolerance 1.00e-04)
Best objective 5.855888908568e+01, best bound 5.855888908568e+01, gap 0.0000%
